NAME : n20w80.003.320.tour
COMMENT : Length = 320
COMMENT : Found by LKH [Keld Helsgaun] Tue May  2 05:18:25 2017
TYPE : TOUR
DIMENSION : 21
TOUR_SECTION
1
4
16
10
17
20
11
15
14
12
5
3
19
8
13
7
2
6
21
18
9
-1
EOF
